GLPSOL--GLPK LP/MIP Solver 5.0
Parameter(s) specified in the command line:
 --lp ../modeles/3_454.lp --log 3_454.log
Reading problem data from '../modeles/3_454.lp'...
1375 rows, 2730 columns, 9543 non-zeros
1362 integer variables, all of which are binary
4114 lines were read
GLPK Integer Optimizer 5.0
1375 rows, 2730 columns, 9543 non-zeros
1362 integer variables, all of which are binary
Preprocessing...
1350 constraint coefficient(s) were reduced
1375 rows, 2727 columns, 9540 non-zeros
1362 integer variables, all of which are binary
Scaling...
 A: min|aij| =  7.763e-05  max|aij| =  4.000e+00  ratio =  5.153e+04
GM: min|aij| =  6.637e-02  max|aij| =  1.507e+01  ratio =  2.270e+02
EQ: min|aij| =  4.405e-03  max|aij| =  1.000e+00  ratio =  2.270e+02
2N: min|aij| =  3.906e-03  max|aij| =  1.762e+00  ratio =  4.511e+02
Constructing initial basis...
Size of triangular part is 1375
Solving LP relaxation...
GLPK Simplex Optimizer 5.0
1375 rows, 2727 columns, 9540 non-zeros
      0: obj =   6.000000000e+00 inf =   1.450e+01 (7)
     80: obj =   4.633877713e-01 inf =   0.000e+00 (0)
*   256: obj =  -1.732000538e+00 inf =   8.127e-17 (0)
OPTIMAL LP SOLUTION FOUND
Integer optimization begins...
Long-step dual simplex will be used
+   256: mip =     not found yet >=              -inf        (1; 0)
+   775: >>>>>  -1.732000538e+00 >=  -1.732000538e+00   0.0% (519; 0)
+   775: mip =  -1.732000538e+00 >=     tree is empty   0.0% (0; 1037)
INTEGER OPTIMAL SOLUTION FOUND
Time used:   0.9 secs
Memory used: 4.0 Mb (4205853 bytes)
